c instance by G2
c solution = 110101110
c Known solution cost is 375 
p cnf 9 30
w 21 14 7 0 96 36 73 77 51
-5 -2 7 0
5 -9 -3 0
-6 -1 -3 0
-4 -1 -9 0
7 -2 -6 0
6 9 -3 0
-2 -3 -7 0
9 -6 -5 0
5 4 -2 0
-8 7 -2 0
1 3 5 0
-9 3 -8 0
9 5 2 0
-1 6 9 0
3 7 9 0
-5 7 3 0
9 -7 8 0
-3 1 2 0
5 7 -9 0
7 2 -5 0
4 5 1 0
-6 1 -4 0
-7 1 6 0
-3 9 4 0
8 4 1 0
-5 -8 -2 0
1 5 8 0
-1 -4 -9 0
1 -2 4 0
-1 3 6 0
